c ---- [ banner ] ------------------------------------------------------------
c
c Kissat SAT Solver
c 
c Copyright (c) 2021-2024 Armin Biere University of Freiburg
c Copyright (c) 2019-2021 Armin Biere Johannes Kepler University Linz
c 
c Version 4.0.1 43f02cf3e992cb44653b35e5cb26f93281552ae0
c gcc (Ubuntu 13.2.0-23ubuntu4) 13.2.0 -W -Wall -O3 -DNDEBUG
c Thu Sep 12 12:27:46 CEST 2024 Linux abryzen9 6.8.0-41-generic x86_64
c
c ---- [ parsing ] -----------------------------------------------------------
c
c opened and reading DIMACS file:
c
c   /data/artifact/AMulet2.0_artifact/exp4/cnf_mfs_64/64_64_U1_WT_RC_Multgen_mfs.cnf
c
c parsed 'p cnf 36432 141677' header
c closing input after reading 2758989 bytes (3 MB)
c finished parsing after 0.02 seconds
c
c ---- [ options ] -----------------------------------------------------------
c
c --stable=0                       (different from default '1')
c
c ---- [ solving ] -----------------------------------------------------------
c
c  seconds switched rate     size/glue tier1  binary           remaining
c         MB reductions conflicts size  tier2     irredundant
c          level restarts redundant glue  trail           variables
c
c *  0.02 11 0 0 0  0 0   0   0 0.0 0 0 0 0 0% 29295 112380 36429 100%
c (  0.04 13 0 0 0  0 0   0   0 0.0 0 0 0 0 0% 29295 112380 36429 100%
c .  0.04 13 0 0 0  0 0   0   0 0.0 0 0 0 0 0% 29291 112380 36429 100%
c c  0.11 21 0 0 0  0 0   0   0 0.0 0 0 0 0 0% 36516 98148 32816 90%
c d  0.11 22 0 0 0  0 0   0   0 0.0 0 0 0 0 0% 29290 98148 32816 90%
c =  0.15 22 0 0 0  0 0   0   0 0.0 0 0 0 0 0% 29710 98148 32534 89%
c d  0.16 22 0 0 0  0 0   0   0 0.0 0 0 0 0 0% 29146 98148 32534 89%
c f  0.24 20 0 0 0  0 0   0   0 0.0 0 0 0 0 0% 32077 93444 34303 94%
c e  0.34 29 0 0 0  0 0   0   0 0.0 0 0 0 0 0% 10181 107610 23137 64%
c )  0.34 29 0 0 0  0 0   0   0 0.0 0 0 0 0 0% 10181 107610 23137 64%
c {  0.35 29 0 0 0  0 0   0   0 0.0 0 0 2 6 0% 10181 107610 23137 64%
c -  0.51 29 162 0 1 263 31 1001 768 3.0 14 5 2 6 18% 10256 107600 23137 64%
c -  0.67 29 223 0 2 442 45 2003 1496 4.0 20 5 3 9 21% 10289 107600 23137 64%
c c  0.78 23 246 0 2 503 43 2503 1932 3.6 18 5 3 9 21% 10314 107578 23135 64%
c d  0.78 23 246 0 2 503 43 2503 1932 3.6 18 5 3 9 21% 10310 107578 23135 64%
c u  0.79 23 246 0 2 503 43 2503 1407 3.6 18 5 3 9 21% 10324 107578 23135 64%
c v  0.81 23 246 0 2 503 43 2503 1198 3.6 18 5 3 9 21% 10324 107578 23135 64%
c w  0.82 23 246 0 2 503 43 2503 1196 3.6 18 5 3 9 21% 10324 107578 23135 64%
c x  0.83 23 246 0 2 503 43 2503 1196 3.6 18 5 3 9 21% 10418 107387 23135 64%
c =  0.88 26 246 0 2 503 43 2503 1196 3.6 18 5 3 9 21% 10820 107387 22934 63%
c
c  seconds   switched   rate       size/glue tier1    binary           remaining
c         MB  reductions conflicts       size  tier2      irredundant
c           level restarts    redundant    glue   trail           variables
c
c d  0.89 26 246 0 2 503 43 2503 1194 3.6 18 5 3 9 21% 10410 107387 22934 63%
c f  0.92 26 246 0 2 503 43 2503 1194 3.6 18 5 3 9 21% 11180 105923 23623 65%
c u  0.93 26 246 0 2 503 43 2503 1133 3.6 18 5 3 9 21% 11181 105923 23623 65%
c v  0.94 26 246 0 2 503 43 2503 1081 3.6 18 5 3 9 21% 11181 105923 23623 65%
c w  0.96 26 246 0 2 503 43 2503 1075 3.6 18 5 3 9 21% 11181 105923 23623 65%
c x  0.97 26 246 0 2 503 43 2503 1075 3.6 18 5 3 9 21% 11182 105417 23623 65%
c =  1.02 26 246 0 2 503 43 2503 1075 3.6 18 5 3 9 21% 11516 105417 23456 64%
c d  1.03 26 246 0 2 503 43 2503 1075 3.6 18 5 3 9 21% 11142 105417 23456 64%
c f  1.06 26 246 0 2 503 43 2503 1075 3.6 18 5 3 9 21% 11596 104736 23683 65%
c -  1.22 26 293 0 3 601 45 3417 1629 4.1 22 5 2 9 23% 11633 104730 23683 65%
c -  1.43 28 310 0 4 742 42 5149 2837 4.2 21 5 2 8 21% 11685 104725 23683 65%
c -  1.80 28 355 0 5 1035 42 7149 4089 4.3 22 5 2 8 22% 11787 104713 23683 65%
c c  1.90 28 359 0 5 1060 41 7708 4544 4.2 22 5 2 8 22% 11819 104644 23660 65%
c d  1.90 28 359 0 5 1060 41 7708 4530 4.2 22 5 2 8 22% 11769 104644 23658 65%
c u  1.92 28 359 0 5 1060 41 7708 3525 4.2 22 5 2 8 22% 11780 104644 23658 65%
c v  1.94 28 359 0 5 1060 41 7708 3086 4.2 22 5 2 8 22% 11780 104644 23658 65%
c w  1.96 28 359 0 5 1060 41 7708 3083 4.2 22 5 2 8 22% 11780 104644 23658 65%
c x  1.98 28 359 0 5 1060 41 7708 3083 4.2 22 5 2 8 22% 11821 101287 23658 65%
c =  2.08 28 359 0 5 1060 41 7708 3083 4.2 22 5 2 8 22% 12657 101287 23240 64%
c d  2.08 28 359 0 5 1060 41 7708 3061 4.2 22 5 2 8 22% 11721 101287 23239 64%
c
c  seconds   switched    rate       size/glue tier1    binary           remaining
c         MB  reductions  conflicts       size  tier2      irredundant
c           level  restarts    redundant    glue   trail           variables
c
c t  2.10 28 359 0 5 1060 41 7708 3061 4.2 22 5 2 8 22% 11711 101287 23239 64%
c f  2.13 28 359 0 5 1060 41 7708 3061 4.2 22 5 2 8 22% 13601 98443 24187 66%
c u  2.15 28 359 0 5 1060 41 7708 2800 4.2 22 5 2 8 22% 13601 98443 24187 66%
c v  2.17 28 359 0 5 1060 41 7708 2720 4.2 22 5 2 8 22% 13601 98443 24187 66%
c w  2.18 28 359 0 5 1060 41 7708 2718 4.2 22 5 2 8 22% 13601 98443 24187 66%
c x  2.21 28 359 0 5 1060 41 7708 2718 4.2 22 5 2 8 22% 13671 95330 24187 66%
c =  2.30 28 359 0 5 1060 41 7708 2718 4.2 22 5 2 8 22% 14299 95330 23873 66%
c d  2.31 28 359 0 5 1060 41 7708 2716 4.2 22 5 2 8 22% 13591 95330 23873 66%
c t  2.32 28 359 0 5 1060 41 7708 2716 4.2 22 5 2 8 22% 13569 95330 23873 66%
c f  2.36 28 359 0 5 1060 41 7708 2716 4.2 22 5 2 8 22% 13683 95159 23930 66%
c -  2.60 28 364 0 6 1235 41 9385 3792 4.4 23 5 2 7 22% 13722 95155 23930 66%
c o  2.67 28 354 0 6 1262 40 10038 4338 4.4 22 5 2 7 22% 13748 95155 23930 66%
c -  3.10 28 343 0 7 1551 41 11836 5270 4.6 25 5 2 7 23% 13810 95155 23930 66%
c s  3.21 28 345 0 7 1599 41 12512 5866 4.7 25 5 2 7 23% 13842 94024 23930 66%
c e  3.30 28 345 0 7 1599 41 12512 5866 4.7 25 5 2 7 23% 11551 95613 22254 61%
c s  3.31 28 345 0 7 1599 41 12512 5866 4.7 25 5 2 7 23% 11562 94466 22254 61%
c e  3.32 28 345 0 7 1599 41 12512 5866 4.7 25 5 2 7 23% 11558 94469 22253 61%
c ^  3.32 28 345 0 7 1599 41 12512 5866 4.7 25 5 2 7 23% 11558 94469 22253 61%
c -  3.52 28 370 0 8 1703 40 14481 6299 4.5 24 5 2 7 23% 11654 94465 22253 61%
c d  3.66 28 376 0 8 1806 40 15785 7465 4.5 23 5 2 7 22% 11449 94451 22090 61%
c
c  seconds   switched    rate        size/glue tier1    binary          remaining
c         MB  reductions   conflicts       size  tier2      irredundant
c           level  restarts     redundant    glue   trail          variables
c
c u  3.69 28 376 0 8 1806 40 15785 5903 4.5 23 5 2 7 22% 11469 94451 22090 61%
c v  3.71 28 376 0 8 1806 40 15785 5284 4.5 23 5 2 7 22% 11469 94451 22090 61%
c w  3.76 28 376 0 8 1806 40 15785 5273 4.5 23 5 2 7 22% 11469 94451 22090 61%
c x  3.78 28 376 0 8 1806 40 15785 5273 4.5 23 5 2 7 22% 11487 94114 22090 61%
c =  3.91 28 376 0 8 1806 40 15785 5273 4.5 23 5 2 7 22% 12963 94114 21352 59%
c d  3.92 28 376 0 8 1806 40 15785 5185 4.5 23 5 2 7 22% 11117 94114 21349 59%
c t  3.93 28 376 0 8 1806 40 15785 5185 4.5 23 5 2 7 22% 11098 94114 21349 59%
c f  3.97 28 376 0 8 1806 40 15785 5185 4.5 23 5 2 7 22% 11105 94097 21354 59%
c u  4.04 28 376 0 8 1806 40 15785 4844 4.5 23 5 2 7 22% 11110 94097 21354 59%
c v  4.05 28 376 0 8 1806 40 15785 4728 4.5 23 5 2 7 22% 11110 94097 21354 59%
c w  4.09 28 376 0 8 1806 40 15785 4703 4.5 23 5 2 7 22% 11110 94097 21354 59%
c x  4.12 28 376 0 8 1806 40 15785 4700 4.5 23 5 2 7 22% 11121 92778 21354 59%
c =  4.25 28 376 0 8 1806 40 15785 4700 4.5 23 5 2 7 22% 12545 92778 20642 57%
c d  4.26 28 376 0 8 1806 40 15785 4681 4.5 23 5 2 7 22% 10804 92778 20642 57%
c t  4.27 28 376 0 8 1806 40 15785 4681 4.5 23 5 2 7 22% 10801 92778 20642 57%
c f  4.28 28 376 0 8 1806 40 15785 4681 4.5 23 5 2 7 22% 10804 92769 20645 57%
c -  4.42 28 374 0 9 1879 38 17309 5414 4.4 22 5 2 6 22% 10832 92769 20645 57%
c o  4.91 28 360 0 9 2222 38 20038 7696 4.4 24 5 2 6 23% 10916 92769 20645 57%
c -  5.01 28 358 0 10 2300 39 20309 7182 4.5 25 5 2 6 23% 10921 92769 20645 57%
c -  5.56 28 357 0 11 2645 38 23471 8988 4.5 25 6 2 6 23% 11004 92766 20645 57%
c
c  seconds   switched     rate         size/glue tier1    binary          remaining
c         MB   reductions   conflicts        size  tier2      irredundant
c           level   restarts      redundant    glue   trail          variables
c
c s  5.80 28 358 0 11 2780 38 25015 10273 4.5 25 6 2 6 24% 11044 91833 20645 57%
c e  5.90 28 358 0 11 2780 38 25015 10273 4.5 25 6 2 6 24% 9822 95272 17743 49%
c s  5.92 28 358 0 11 2780 38 25015 10273 4.5 25 6 2 6 24% 9848 91778 17743 49%
c e  5.96 28 358 0 11 2780 38 25015 10273 4.5 25 6 2 6 24% 9842 91793 17733 49%
c ^  5.96 28 358 0 11 2780 38 25015 10273 4.5 25 6 2 6 24% 9842 91793 17733 49%
c -  6.20 28 353 0 12 2893 36 26790 8746 4.3 24 6 2 6 24% 9882 91792 17733 49%
c d  6.20 28 351 0 12 2893 36 26911 8804 4.3 24 6 2 6 24% 9788 91792 17671 49%
c u  6.23 28 351 0 12 2893 36 26911 7192 4.3 24 6 2 6 24% 9805 91792 17671 49%
c v  6.26 28 351 0 12 2893 36 26911 6237 4.3 24 6 2 6 24% 9811 91792 17671 49%
c w  6.26 28 351 0 12 2893 36 26911 6232 4.3 24 6 2 6 24% 9811 91792 17671 49%
c x  6.35 28 351 0 12 2893 36 26911 6225 4.3 24 6 2 6 24% 9849 88747 17671 49%
c =  6.54 28 351 0 12 2893 36 26911 6225 4.3 24 6 2 6 24% 11825 88747 16683 46%
c d  6.54 28 351 0 12 2893 36 26911 6047 4.3 24 6 2 6 24% 9745 88747 16677 46%
c t  6.56 28 351 0 12 2893 36 26911 6047 4.3 24 6 2 6 24% 9697 88747 16677 46%
c f  6.62 28 351 0 12 2893 36 26911 6047 4.3 24 6 2 6 24% 9717 88582 16711 46%
c u  6.64 28 351 0 12 2893 36 26911 5658 4.3 24 6 2 6 24% 9722 88582 16711 46%
c v  6.66 28 351 0 12 2893 36 26911 5536 4.3 24 6 2 6 24% 9724 88582 16711 46%
c w  6.67 28 351 0 12 2893 36 26911 5535 4.3 24 6 2 6 24% 9724 88582 16711 46%
c x  6.75 28 351 0 12 2893 36 26911 5534 4.3 24 6 2 6 24% 9727 81481 16711 46%
c =  6.93 28 351 0 12 2893 36 26911 5534 4.3 24 6 2 6 24% 11229 81481 15960 44%
c
c  seconds   switched     rate        size/glue tier1    binary         remaining
c         MB   reductions   conflicts       size  tier2     irredundant
c           level   restarts     redundant    glue   trail         variables
c
c d  6.94 28 351 0 12 2893 36 26911 5435 4.3 24 6 2 6 24% 9669 81481 15960 44%
c t  6.95 28 351 0 12 2893 36 26911 5435 4.3 24 6 2 6 24% 9662 81481 15960 44%
c f  6.97 28 351 0 12 2893 36 26911 5435 4.3 24 6 2 6 24% 9664 81473 15962 44%
c -  7.35 28 322 0 13 3158 34 30257 7630 4.0 22 6 2 6 23% 9690 81473 15962 44%
c -  7.74 28 297 0 14 3460 32 33862 9815 3.8 21 6 2 6 23% 9720 81473 15962 44%
c -  8.18 28 289 0 15 3812 32 37607 11653 3.7 21 6 2 6 24% 9780 81472 15962 44%
c o  8.46 28 287 0 15 4039 32 40039 13787 3.7 21 6 2 6 24% 9817 81471 15962 44%
c d  8.61 28 282 0 15 4195 31 41241 14784 3.7 21 6 2 6 23% 9755 81470 15923 44%
c u  8.65 28 282 0 15 4195 31 41241 12424 3.7 21 6 2 6 23% 9766 81470 15923 44%
c v  8.70 28 282 0 15 4195 31 41241 10853 3.7 21 6 2 6 23% 9768 81470 15923 44%
c w  8.74 28 282 0 15 4195 31 41241 10853 3.7 21 6 2 6 23% 9768 81470 15923 44%
c x  8.78 28 282 0 15 4195 31 41241 10852 3.7 21 6 2 6 23% 9768 77713 15923 44%
c =  8.97 28 282 0 15 4195 31 41241 10852 3.7 21 6 2 6 23% 10284 77713 15665 43%
c d  8.98 28 282 0 15 4195 31 41241 10662 3.7 21 6 2 6 23% 9734 77713 15665 43%
c t  8.99 28 282 0 15 4195 31 41241 10662 3.7 21 6 2 6 23% 9720 77713 15665 43%
c f  9.00 28 282 0 15 4195 31 41241 10662 3.7 21 6 2 6 23% 9721 77705 15667 43%
c c  9.04 28 282 0 15 4195 31 41241 10638 3.7 21 6 2 6 23% 9749 77577 15652 43%
c d  9.05 28 282 0 15 4195 31 41241 10638 3.7 21 6 2 6 23% 9719 77577 15652 43%
c u  9.08 28 282 0 15 4195 31 41241 10103 3.7 21 6 2 6 23% 9721 77577 15652 43%
c v  9.10 28 282 0 15 4195 31 41241 9863 3.7 21 6 2 6 23% 9722 77577 15652 43%
c
c  seconds   switched     rate        size/glue tier1    binary         remaining
c         MB   reductions   conflicts       size  tier2     irredundant
c           level   restarts     redundant    glue   trail         variables
c
c w  9.18 28 282 0 15 4195 31 41241 9850 3.7 21 6 2 6 23% 9722 77577 15652 43%
c x  9.23 28 282 0 15 4195 31 41241 9848 3.7 21 6 2 6 23% 9722 75290 15652 43%
c =  9.40 28 282 0 15 4195 31 41241 9848 3.7 21 6 2 6 23% 10266 75290 15380 42%
c d  9.41 28 282 0 15 4195 31 41241 9714 3.7 21 6 2 6 23% 9691 75290 15380 42%
c t  9.42 28 282 0 15 4195 31 41241 9714 3.7 21 6 2 6 23% 9676 75290 15380 42%
c f  9.43 28 282 0 15 4195 31 41241 9714 3.7 21 6 2 6 23% 9680 75270 15385 42%
c -  9.46 28 280 0 16 4201 31 41479 8831 3.7 21 6 2 5 23% 9681 75270 15385 42%
c -  9.98 28 268 0 17 4600 30 45479 11142 3.5 20 6 2 5 24% 9722 75269 15385 42%
c - 10.43 28 264 0 18 4965 30 49604 13451 3.5 20 6 2 5 24% 9765 75268 15385 42%
c s 10.71 28 259 0 18 5194 30 52115 15469 3.5 20 6 2 5 24% 9814 73532 15385 42%
c e 10.79 28 259 0 18 5194 30 52115 15469 3.5 20 6 2 5 24% 8242 76284 14307 39%
c s 10.80 28 259 0 18 5194 30 52115 15469 3.5 20 6 2 5 24% 8256 75846 14307 39%
c e 10.80 28 259 0 18 5194 30 52115 15469 3.5 20 6 2 5 24% 8241 75859 14293 39%
c ^ 10.80 28 259 0 18 5194 30 52115 15469 3.5 20 6 2 5 24% 8241 75859 14293 39%
c - 11.10 28 254 0 19 5466 30 53848 13587 3.4 20 6 2 5 24% 8255 75857 14293 39%
c - 11.64 28 245 0 20 5975 29 58207 15630 3.3 19 6 2 5 24% 8301 75855 14293 39%
c d 11.65 28 246 0 20 5982 29 58882 16147 3.3 19 6 2 5 24% 8283 75855 14279 39%
c u 11.70 28 246 0 20 5982 29 58882 13407 3.3 19 6 2 5 24% 8302 75855 14279 39%
c v 11.74 28 246 0 20 5982 29 58882 12006 3.3 19 6 2 5 24% 8304 75855 14279 39%
c w 11.75 28 246 0 20 5982 29 58882 11815 3.3 19 6 2 5 24% 8304 75855 14279 39%
c
c  seconds   switched     rate         size/glue tier1    binary         remaining
c         MB   reductions   conflicts        size  tier2     irredundant
c           level   restarts      redundant    glue   trail         variables
c
c x 11.83 28 246 0 20 5982 29 58882 11813 3.3 19 6 2 5 24% 8307 75539 14279 39%
c d 12.06 28 246 0 20 5982 29 58882 11805 3.3 19 6 2 5 24% 8297 75539 14274 39%
c t 12.07 28 246 0 20 5982 29 58882 11805 3.3 19 6 2 5 24% 8277 75539 14274 39%
c f 12.11 28 246 0 20 5982 29 58882 11805 3.3 19 6 2 5 24% 8296 75450 14287 39%
c u 12.15 28 246 0 20 5982 29 58882 11420 3.3 19 6 2 5 24% 8303 75450 14287 39%
c v 12.17 28 246 0 20 5982 29 58882 11197 3.3 19 6 2 5 24% 8304 75450 14287 39%
c w 12.17 28 246 0 20 5982 29 58882 11155 3.3 19 6 2 5 24% 8304 75450 14287 39%
c x 12.28 28 246 0 20 5982 29 58882 11153 3.3 19 6 2 5 24% 8325 74329 14287 39%
c t 12.30 28 246 0 20 5982 29 58882 11153 3.3 19 6 2 5 24% 8319 74329 14287 39%
c - 12.88 28 238 0 21 6478 28 62680 13243 3.2 19 6 2 5 24% 8338 74327 14287 39%
c - 13.34 28 234 0 22 6909 28 67262 15651 3.1 19 6 2 5 24% 8426 74326 14287 39%
c o 13.75 28 229 0 22 7210 28 70042 18106 3.1 18 6 2 5 24% 8469 74325 14287 39%
c - 14.00 28 225 0 23 7424 28 71953 17611 3.1 19 6 2 5 24% 8508 74325 14287 39%
c - 14.51 28 220 0 24 7834 27 76748 17316 3.1 19 6 1 5 24% 8551 74325 14287 39%
c d 14.83 28 215 0 24 8093 26 79959 19523 3.0 19 6 1 5 24% 8398 74323 14160 39%
c u 14.87 28 215 0 24 8093 26 79959 17509 3.0 19 6 1 5 24% 8415 74323 14160 39%
c v 14.93 28 215 0 24 8093 26 79959 14733 3.0 19 6 1 5 24% 8436 74323 14160 39%
c w 15.01 28 215 0 24 8093 26 79959 14711 3.0 19 6 1 5 24% 8436 74323 14160 39%
c x 15.07 28 215 0 24 8093 26 79959 14709 3.0 19 6 1 5 24% 8440 74196 14160 39%
c = 15.22 28 215 0 24 8093 26 79959 14709 3.0 19 6 1 5 24% 8640 74196 14060 39%
c
c  seconds   switched     rate         size/glue tier1    binary         remaining
c         MB   reductions   conflicts        size  tier2     irredundant
c           level   restarts      redundant    glue   trail         variables
c
c d 15.22 28 215 0 24 8093 26 79959 14610 3.0 19 6 1 5 24% 8382 74196 14050 39%
c t 15.23 28 215 0 24 8093 26 79959 14610 3.0 19 6 1 5 24% 8376 74196 14050 39%
c f 15.25 28 215 0 24 8093 26 79959 14610 3.0 19 6 1 5 24% 8380 74182 14052 39%
c u 15.28 28 215 0 24 8093 26 79959 14145 3.0 19 6 1 5 24% 8387 74182 14052 39%
c v 15.32 28 215 0 24 8093 26 79959 13595 3.0 19 6 1 5 24% 8389 74182 14052 39%
c w 15.44 28 215 0 24 8093 26 79959 13193 3.0 19 6 1 5 24% 8389 74182 14052 39%
c = 15.74 28 215 0 24 8093 26 79959 13193 3.0 19 6 1 5 24% 8995 74142 13745 38%
c d 15.74 28 215 0 24 8093 26 79959 12862 3.0 19 6 1 5 24% 8296 74142 13745 38%
c t 15.75 28 215 0 24 8093 26 79959 12862 3.0 19 6 1 5 24% 8272 74142 13745 38%
c f 15.76 28 215 0 24 8093 26 79959 12862 3.0 19 6 1 5 24% 8273 74126 13748 38%
c - 15.95 28 213 0 25 8253 26 81647 12069 3.0 18 6 1 5 24% 8279 74123 13748 38%
c - 16.75 28 207 0 26 8962 26 86648 14131 2.9 18 6 1 5 24% 8308 74120 13748 38%
c - 17.44 28 203 0 27 9579 26 91747 16153 3.0 19 6 1 5 24% 8354 74116 13748 38%
c s 18.04 28 199 0 27 10051 26 95809 19718 3.0 19 6 1 5 24% 8369 72220 13748 38%
c e 18.13 28 199 0 27 10051 26 95809 19718 3.0 19 6 1 5 24% 5694 79426 12264 34%
c 2 18.13 28 199 0 27 10051 26 95809 19718 3.0 19 6 1 5 24% 5692 79426 12264 34%
c s 18.15 28 199 0 27 10051 26 95809 19718 3.0 19 6 1 5 24% 5724 78735 12264 34%
c e 18.17 28 199 0 27 10051 26 95809 19718 3.0 19 6 1 5 24% 5653 78964 12198 33%
c ^ 18.17 28 199 0 27 10051 26 95809 19718 3.0 19 6 1 5 24% 5653 78964 12198 33%
c - 18.34 27 197 0 28 10154 26 96945 13926 3.0 19 6 1 5 24% 5656 78964 12198 33%
c
c  seconds   switched      rate          size/glue tier1    binary         remaining
c         MB   reductions    conflicts         size  tier2     irredundant
c           level   restarts        redundant    glue   trail         variables
c
c - 19.02 27 193 0 29 10610 25 102236 15977 2.9 19 6 1 5 24% 5699 78963 12198 33%
c c 19.55 27 191 0 29 10969 25 104591 18144 3.0 20 7 1 5 24% 5761 78632 12143 33%
c d 19.56 27 191 0 29 10969 25 104591 17902 3.0 20 7 1 5 24% 5651 78632 12143 33%
c u 19.59 27 191 0 29 10969 25 104591 15944 3.0 20 7 1 5 24% 5665 78632 12143 33%
c v 19.65 27 191 0 29 10969 25 104591 13399 3.0 20 7 1 5 24% 5667 78632 12143 33%
c w 19.80 27 191 0 29 10969 25 104591 13356 3.0 20 7 1 5 24% 5667 78632 12143 33%
c x 19.86 27 191 0 29 10969 25 104591 13356 3.0 20 7 1 5 24% 5667 78595 12143 33%
c = 20.27 27 191 0 29 10969 25 104591 13356 3.0 20 7 1 5 24% 6107 78591 11923 33%
c d 20.27 27 191 0 29 10969 25 104591 13083 3.0 20 7 1 5 24% 5624 78591 11923 33%
c t 20.28 27 191 0 29 10969 25 104591 13083 3.0 20 7 1 5 24% 5595 78591 11923 33%
c f 20.34 27 191 0 29 10969 25 104591 13083 3.0 20 7 1 5 24% 5621 78453 11935 33%
c u 20.38 27 191 0 29 10969 25 104591 12546 3.0 20 7 1 5 24% 5625 78453 11935 33%
c v 20.41 27 191 0 29 10969 25 104591 12060 3.0 20 7 1 5 24% 5625 78453 11935 33%
c w 20.59 27 191 0 29 10969 25 104591 11719 3.0 20 7 1 5 24% 5625 78453 11935 33%
c = 21.01 27 191 0 29 10969 25 104591 11719 3.0 20 7 1 5 24% 5655 78453 11920 33%
c d 21.01 27 191 0 29 10969 25 104591 11706 3.0 20 7 1 5 24% 5622 78453 11920 33%
c t 21.02 27 191 0 29 10969 25 104591 11706 3.0 20 7 1 5 24% 5620 78453 11920 33%
c - 21.35 27 188 0 30 11155 25 107623 12379 2.9 19 7 1 5 24% 5627 78453 11920 33%
c o 21.74 27 187 0 30 11432 25 110155 14710 2.9 20 7 1 5 25% 5629 78453 11920 33%
c - 22.09 27 186 0 31 11684 25 113100 14931 2.9 20 7 1 5 24% 5639 78453 11920 33%
c
c  seconds   switched      rate          size/glue tier1    binary         remaining
c         MB   reductions    conflicts         size  tier2     irredundant
c           level   restarts        redundant    glue   trail         variables
c
c - 22.82 27 185 0 32 12186 25 118667 16972 2.9 20 7 1 5 24% 5675 78453 11920 33%
c - 23.84 27 181 0 33 12864 25 124324 18887 2.9 21 7 1 4 25% 5699 78452 11920 33%
c - 24.84 27 179 0 34 13541 25 130069 20404 3.0 22 7 1 4 25% 5734 78451 11920 33%
c d 25.43 27 177 0 34 13948 25 132845 22774 3.0 22 7 1 4 25% 5683 78451 11887 33%
c u 25.48 27 177 0 34 13948 25 132845 20182 3.0 22 7 1 4 25% 5703 78451 11887 33%
c v 25.55 27 177 0 34 13948 25 132845 17450 3.0 22 7 1 4 25% 5711 78451 11887 33%
c w 25.85 27 177 0 34 13948 25 132845 17197 3.0 22 7 1 4 25% 5711 78451 11887 33%
c = 26.34 27 177 0 34 13948 25 132845 17197 3.0 22 7 1 4 25% 5771 78451 11857 33%
c d 26.34 27 177 0 34 13948 25 132845 17060 3.0 22 7 1 4 25% 5684 78451 11848 33%
c t 26.35 27 177 0 34 13948 25 132845 17060 3.0 22 7 1 4 25% 5681 78451 11848 33%
c f 26.36 27 177 0 34 13948 25 132845 17060 3.0 22 7 1 4 25% 5684 78439 11849 33%
c c 26.40 27 177 0 34 13948 25 132845 17035 3.0 22 7 1 4 25% 5697 78353 11838 32%
c d 26.40 27 177 0 34 13948 25 132845 17035 3.0 22 7 1 4 25% 5675 78353 11838 32%
c u 26.44 27 177 0 34 13948 25 132845 16375 3.0 22 7 1 4 25% 5677 78353 11838 32%
c v 26.48 27 177 0 34 13948 25 132845 15832 3.0 22 7 1 4 25% 5677 78353 11838 32%
c w 26.67 27 177 0 34 13948 25 132845 15137 3.0 22 7 1 4 25% 5677 78353 11838 32%
c x 26.77 27 177 0 34 13948 25 132845 15081 3.0 22 7 1 4 25% 5710 74513 11838 32%
c = 27.25 27 177 0 34 13948 25 132845 15081 3.0 22 7 1 4 25% 5806 74513 11790 32%
c d 27.26 27 177 0 34 13948 25 132845 15021 3.0 22 7 1 4 25% 5704 74513 11790 32%
c t 27.27 27 177 0 34 13948 25 132845 15021 3.0 22 7 1 4 25% 5678 74513 11790 32%
c
c  seconds   switched      rate          size/glue tier1    binary         remaining
c         MB   reductions    conflicts         size  tier2     irredundant
c           level   restarts        redundant    glue   trail         variables
c
c f 27.28 27 177 0 34 13948 25 132845 15021 3.0 22 7 1 4 25% 5687 74464 11794 32%
c - 27.53 27 175 0 35 14061 24 135899 15245 3.0 22 7 1 4 25% 5700 74464 11794 32%
c - 28.32 27 175 0 36 14556 24 141816 17711 2.9 22 7 1 4 26% 5721 74462 11794 32%
c - 29.22 27 172 0 37 15124 24 147819 19725 2.9 22 8 1 4 26% 5755 74462 11794 32%
c - 29.89 27 174 0 38 15543 23 153902 21305 2.9 22 8 1 4 26% 5800 74462 11794 32%
c s 30.52 27 172 0 38 15968 23 157892 24956 2.9 22 8 1 4 26% 5825 74263 11794 32%
c e 30.63 27 172 0 38 15968 23 157892 24956 2.9 22 8 1 4 26% 3187 86658 10126 28%
c 2 30.63 27 172 0 38 15968 23 157892 24956 2.9 22 8 1 4 26% 3184 86658 10126 28%
c s 30.65 27 172 0 38 15968 23 157892 24956 2.9 22 8 1 4 26% 3198 85410 10126 28%
c e 30.67 27 172 0 38 15968 23 157892 24956 2.9 22 8 1 4 26% 3146 85640 10081 28%
c ^ 30.67 27 172 0 38 15968 23 157892 24956 2.9 22 8 1 4 26% 3146 85640 10081 28%
c - 30.98 27 171 0 39 16165 23 160066 15867 2.9 23 8 1 4 26% 3152 85640 10081 28%
c o 30.99 27 171 0 39 16169 23 160158 15954 2.9 23 8 1 4 26% 3152 85640 10081 28%
c d 31.54 27 169 0 39 16544 23 164850 20175 2.9 22 8 1 4 26% 3155 85640 10075 28%
c u 31.58 27 169 0 39 16544 23 164850 18057 2.9 22 8 1 4 26% 3166 85640 10075 28%
c v 31.64 27 169 0 39 16544 23 164850 15460 2.9 22 8 1 4 26% 3169 85640 10075 28%
c w 31.86 27 169 0 39 16544 23 164850 14792 2.9 22 8 1 4 26% 3169 85640 10075 28%
c = 32.31 27 169 0 39 16544 23 164850 14792 2.9 22 8 1 4 26% 3283 85640 10018 27%
c d 32.32 27 169 0 39 16544 23 164850 14684 2.9 22 8 1 4 26% 3141 85640 10018 27%
c t 32.32 27 169 0 39 16544 23 164850 14684 2.9 22 8 1 4 26% 3125 85640 10018 27%
c
c  seconds   switched      rate          size/glue tier1    binary         remaining
c         MB   reductions    conflicts         size  tier2     irredundant
c           level   restarts        redundant    glue   trail         variables
c
c f 32.42 27 169 0 39 16544 23 164850 14684 2.9 22 8 1 4 26% 3166 85155 10040 28%
c u 32.46 27 169 0 39 16544 23 164850 14198 2.9 22 8 1 4 26% 3167 85155 10040 28%
c v 32.50 27 169 0 39 16544 23 164850 13773 2.9 22 8 1 4 26% 3168 85155 10040 28%
c w 32.67 27 169 0 39 16544 23 164850 13338 2.9 22 8 1 4 26% 3168 85155 10040 28%
c x 32.74 27 169 0 39 16544 23 164850 13338 2.9 22 8 1 4 26% 3169 85118 10040 28%
c = 33.19 27 169 0 39 16544 23 164850 13338 2.9 22 8 1 4 26% 3321 84738 9926 27%
c d 33.20 27 169 0 39 16544 23 164850 13021 2.9 22 8 1 4 26% 3180 84732 9926 27%
c t 33.21 27 169 0 39 16544 23 164850 13021 2.9 22 8 1 4 26% 3165 84732 9925 27%
c - 33.31 27 167 0 40 16597 22 166310 12287 2.9 22 8 1 4 26% 3145 84731 9925 27%
c i 33.46 27 162 0 40 16802 22 170319 15585 2.8 22 8 1 4 25% 3172 84726 9924 27%
c i 33.47 27 162 0 40 16820 22 170436 15685 2.8 22 8 1 4 25% 3179 84726 9921 27%
c - 33.53 27 159 0 41 16938 21 172634 14673 2.8 22 8 1 4 25% 3181 84726 9921 27%
c i 33.66 27 152 0 41 17112 20 178087 19342 2.8 21 8 1 4 23% 3235 84726 9920 27%
c i 33.67 27 151 0 41 17126 20 178585 19700 2.8 21 8 1 4 23% 3247 84726 9919 27%
c - 33.68 27 150 0 42 17126 20 179038 16252 2.8 21 8 1 4 23% 3235 84726 9919 27%
c i 33.69 27 149 0 42 17128 20 179887 16917 2.8 21 8 1 4 23% 3254 84726 9918 27%
c - 33.82 27 141 0 43 17224 19 185518 17709 2.8 21 8 1 5 22% 3270 84725 9918 27%
c i 33.85 27 139 0 43 17257 18 187372 19342 2.8 21 7 1 5 21% 3280 84725 9915 27%
c i 33.86 27 138 0 43 17257 18 187646 19582 2.7 21 7 1 5 21% 3286 84725 9896 27%
c i 33.86 27 138 0 43 17257 18 187654 19582 2.7 21 7 1 5 21% 3291 84725 9895 27%
c
c  seconds   switched      rate          size/glue tier1    binary        remaining
c         MB   reductions    conflicts         size  tier2     irredundant
c           level   restarts        redundant    glue   trail        variables
c
c } 33.86 27 138 0 43 17257 18 187669 19584 2.7 21 7 1 5 21% 3295 84725 9865 27%
c 0 33.86 27 138 0 43 17257 18 187669 19584 2.7 21 7 1 5 21% 3295 84725 9865 27%
c
c ---- [ result ] ------------------------------------------------------------
c
s UNSATISFIABLE
c
c ---- [ profiling ] ---------------------------------------------------------
c
c          23.03   68.02 %  search
c          23.03   68.02 %  focused
c          10.47   30.93 %  simplify
c           9.94   29.37 %  probe
c           4.69   13.85 %  sweep
c           3.77   11.15 %  vivify
c           0.73    2.15 %  eliminate
c           0.64    1.89 %  factor
c           0.39    1.17 %  substitute
c           0.30    0.90 %  congruence
c           0.30    0.89 %  preprocess
c           0.18    0.54 %  reduce
c           0.13    0.38 %  subsume
c           0.10    0.29 %  transitive
c           0.10    0.29 %  fastel
c           0.04    0.12 %  backbone
c           0.03    0.09 %  lucky
c           0.02    0.07 %  parse
c =============================================
c          33.86  100.00 %  total
c
c ---- [ statistics ] --------------------------------------------------------
c
c chronological:                         6583                4 %  conflicts
c conflicts:                           187669             5542.78 per second
c congruent:                             3719               10 %  variables
c decisions:                          3914676               20.86 per conflict
c eliminated:                           20110               55 %  variables
c factored:                              3798               10 %  variables
c fast_eliminated:                      11166               56 %  eliminated
c fast_strengthened:                        2                0 %  per strengthened
c fast_subsumed:                           75                1 %  per subsumed
c iterations:                               9                0 %  variables
c propagations:                     157723231          4658340    per second
c reductions:                              43             4364    interval
c reordered:                                6            31278    interval
c restarts:                             17257               11    interval
c strengthened:                          5755                0 %  checks
c substituted:                          10148               28 %  variables
c subsumed:                             12870                0 %  checks
c switched:                                 0                0    interval
c vivified:                             87681               12 %  checks
c
c ---- [ glue usage ] --------------------------------------------------------
c
c focused glue 1 used 335827 clauses 61.20% accumulated 61.20% tier1
c focused glue 2 used 103299 clauses 18.83% accumulated 80.03%
c focused glue 3 used  33563 clauses  6.12% accumulated 86.14%
c focused glue 4 used  19977 clauses  3.64% accumulated 89.78%
c focused glue 5 used  12826 clauses  2.34% accumulated 92.12% tier2
c
c ---- [ resources ] ---------------------------------------------------------
c
c maximum-resident-set-size:         30629888 bytes         29 MB
c process-time:                            34s              33.86 seconds
c
c ---- [ shutting down ] -----------------------------------------------------
c
c exit 20
